SCIP version 5.0.0 [precision: 8 byte] [memory: block] [mode: optimized] [LP solver: NONE] [GitHash: 3bbd232]
Copyright (C) 2002-2017 Konrad-Zuse-Zentrum fuer Informationstechnik Berlin (ZIB)

External codes: 
  Readline EditLine w  GNU library for command line editing (gnu.org/s/readline)
  CppAD 20160000.1     Algorithmic Differentiation of C++ algorithms developed by B. Bell (www.coin-or.org/CppAD)
  ZLIB 1.2.5           General purpose compression library by J. Gailly and M. Adler (zlib.net)
  GMP 6.1.2            GNU Multiple Precision Arithmetic Library developed by T. Granlund (gmplib.org)

user parameter file <scip.set> not found - using default parameters

read problem <../../Split_data/output/parkin/8/1_sample_parkin.logreg>
============

File name	:	../../Split_data/output/parkin/8/1_sample_parkin.logreg
Problem name 	:	1_sample_parkin
Number of data	:	156
Number of var	:	22
The given data has linear independence

[dim=1] time: 0.003029
[dim=2] time: 0.005726
[dim=3] time: 0.00826
[dim=4] time: 0.010676
[dim=5] time: 0.013425
[dim=6] time: 0.015809
[dim=7] time: 0.017995
[dim=8] time: 0.020131
[dim=9] time: 0.022628
[dim=10] time: 0.025581
[dim=11] Time of forward = 0.029033sec.
AIC: 93.1304
k: 10

[dim=22] time: 0.079921
[dim=21] time: 0.084311
[dim=20] time: 0.218676
[dim=19] time: 0.227925
[dim=18] time: 0.313597
[dim=17] time: 0.471493
[dim=16] time: 0.485012
[dim=15] time: 0.502374
[dim=14] time: 0.506067
[dim=13] time: 0.51578
[dim=12] time: 0.528087
[dim=11] time: 0.541543
[dim=10] time: 0.544356
[dim=9] Time of backward = 0.545862sec.
AIC: 91.66
k: 10
